200
100
100
100
99
99
97
97
97
97
97
97
96
96
96
96
95
95
95
95
94
93
93
93
92
92
91
90
89
89
88
88
88
87
87
87
86
86
85
85
84
84
83
83
82
81
80
80
80
79
79
79
78
77
77
77
77
76
75
75
74
74
73
72
71
71
71
71
71
71
71
69
69
69
68
65
65
63
63
62
62
62
62
61
61
60
60
59
58
58
58
56
56
56
54
53
53
52
51
51
51
50
49
49
48
48
48
47
46
46
46
46
46
46
43
43
42
41
40
39
39
38
37
37
36
36
36
35
34
34
33
33
32
32
32
32
32
32
32
30
30
29
29
28
27
27
27
27
26
26
26
26
25
25
24
24
23
22
21
21
21
21
20
19
19
18
17
17
17
16
16
16
15
15
15
14
14
13
12
11
11
10
9
9
7
6
6
6
6
6
4
4
4
4
4
3
2
1
1
1
1
1
